CMPL model generation - running

CMPL version: 1.11.0
Authors: Thomas Schleiff, Mike Steglich
Distributed under the GPLv3 

create model instance ...
write model instance ...
CMPL model generation - finished

Solver - running


Welcome to IBM(R) ILOG(R) CPLEX(R) Interactive Optimizer 12.7.1.0
  with Simplex, Mixed Integer & Barrier Optimizers
5725-A06 5725-A29 5724-Y48 5724-Y49 5724-Y54 5724-Y55 5655-Y21
Copyright IBM Corp. 1988, 2017.  All Rights Reserved.

Type 'help' for a list of available commands.
Type 'help' followed by a command name for more
information on commands.

CPLEX> Specified objective sense: MINIMIZE
Selected objective  name:  line[1]
Selected RHS        name:  RHS
Selected bound      name:  BOUND
Problem '/tmp/cmpl.T24025.mps' read.
Read time = 0.05 sec. (8.17 ticks)
CPLEX> CPXPARAM_Read_APIEncoding                        "UTF-8"
Tried aggregator 3 times.
MIP Presolve eliminated 19243 rows and 30706 columns.
MIP Presolve modified 340 coefficients.
Aggregator did 617 substitutions.
Reduced MIP has 2495 rows, 3270 columns, and 9544 nonzeros.
Reduced MIP has 3102 binaries, 0 generals, 0 SOSs, and 0 indicators.
Presolve time = 0.05 sec. (40.40 ticks)
Found incumbent of value 659.235083 after 0.10 sec. (60.77 ticks)
Probing fixed 12 vars, tightened 0 bounds.
Probing time = 0.04 sec. (4.21 ticks)
Tried aggregator 1 time.
MIP Presolve eliminated 0 rows and 12 columns.
MIP Presolve modified 54 coefficients.
Reduced MIP has 2495 rows, 3258 columns, and 9520 nonzeros.
Reduced MIP has 3258 binaries, 0 generals, 0 SOSs, and 0 indicators.
Presolve time = 0.02 sec. (8.16 ticks)
Probing time = 0.01 sec. (2.68 ticks)
Clique table members: 5871.
MIP emphasis: balance optimality and feasibility.
MIP search method: dynamic search.
Parallel mode: none, using 1 thread.
Root relaxation solution time = 0.01 sec. (4.64 ticks)

        Nodes                                         Cuts/
   Node  Left     Objective  IInf  Best Integer    Best Bound    ItCnt     Gap

*     0+    0                          659.2351      -30.1900           104.58%
      0     0      137.7506    13      659.2351      137.7506      130   79.10%
*     0+    0                          155.7770      137.7506            11.57%
*     0+    0                          138.1221      137.7506             0.27%
*     0     0      integral     0      138.1031      Cuts: 14      134    0.00%
      0     0        cutoff            138.1031      138.1031      134    0.00%
Elapsed time = 0.22 sec. (99.46 ticks, tree = 0.01 MB, solutions = 4)

GUB cover cuts applied:  1
Clique cuts applied:  2
Cover cuts applied:  7
Gomory fractional cuts applied:  4

Root node processing (before b&c):
  Real time             =    0.22 sec. (101.18 ticks)
Sequential b&c:
  Real time             =    0.00 sec. (0.00 ticks)
                          ------------
Total (root+branch&cut) =    0.22 sec. (101.18 ticks)

Solution pool: 4 solutions saved.

MIP - Integer optimal solution:  Objective =  1.3810305500e+02
Solution time =    0.22 sec.  Iterations = 134  Nodes = 0
Deterministic time = 101.28 ticks  (455.41 ticks/sec)

CPLEX> Incumbent solution written to file '/tmp/cmpl.T24025.gsol'.
CPLEX> 
CMPL: Time used for model generation: 1 seconds
CMPL: Time used for solving the model: 1 seconds


Solution written to ASCII file: results/output_generated_conf_0.4/2017-08-07-4/fair-nonlinear.sol

Solver - finished
